proyfinal/src/viki/013/experimentInOfficeAgust.take6.output/0747954d-8422-4603-8f2d-ffc51a9511d1.als.out
Reading from standard input... Use '--help' for help.
============================[ Problem Statistics ]=============================
|                                                                             |
|  Number of variables:         87638                                         |
|  Number of clauses:          161767                                         |
|  Parse time:                   0.03 s                                       |
|                                                                             |
============================[ Search Statistics ]==============================
| Conflicts |          ORIGINAL         |          LEARNT          | Progress |
|           |    Vars  Clauses Literals |    Limit  Clauses Lit/Cl |          |
===============================================================================
|       100 |   63836   110390   275937 |    40476      100     12 | 27.159 % |
|       250 |   63836   110390   275937 |    44523      250     58 | 27.159 % |
|       475 |   63835   110387   275931 |    48976      474     79 | 27.161 % |
|       812 |   51853    75467   190003 |    53873      799     63 | 40.833 % |
|      1318 |   51768    75303   189561 |    59261     1301     59 | 40.930 % |
|      2077 |   51379    74098   186393 |    65187     2051     62 | 41.374 % |
|      3216 |   51235    73382   184703 |    71706     3073     63 | 41.538 % |
|      4924 |   51191    73201   184278 |    78876     4776     61 | 41.588 % |
|      7486 |   51010    72512   182589 |    86764     7327     59 | 41.795 % |
|     11330 |   50629    71267   179485 |    95441     9999     59 | 42.229 % |
|     17096 |   49933    69009   174059 |   104985    13678     56 | 43.024 % |
===============================================================================
restarts              : 78
conflicts             : 22189          (7278 /sec)
decisions             : 69274          (0.00 % random) (22722 /sec)
propagations          : 31995101       (10494312 /sec)
conflict literals     : 1261697        (49.99 % deleted)
Memory used           : 37.66 MB
CPU time              : 3.0488 s

UNSATISFIABLE
